p tw 157 484
0 1
0 2
0 21
0 24
0 25
0 26
1 2
1 20
1 107
2 23
2 85
2 111
2 143
3 4
3 73
4 70
5 6
5 7
5 42
5 43
6 7
6 53
7 52
7 124
7 142
8 9
8 10
8 46
8 91
8 110
8 131
9 10
9 47
9 90
9 108
9 130
10 86
10 87
10 88
10 89
11 12
11 13
11 33
11 84
11 116
12 13
12 32
12 83
13 70
13 73
13 74
14 15
14 16
14 36
14 77
14 101
14 150
14 156
15 16
15 78
15 120
16 26
16 57
16 79
16 125
16 143
16 155
17 18
17 19
17 65
17 66
17 67
18 19
18 34
18 35
19 38
19 54
19 55
19 56
19 57
19 58
19 59
19 60
20 21
20 22
20 23
20 107
21 22
21 23
21 24
21 25
21 26
22 23
22 109
23 85
23 111
23 143
24 25
24 26
24 27
24 59
24 85
25 26
25 86
25 107
25 108
25 109
25 110
25 111
26 57
26 79
26 125
26 143
26 155
27 28
27 29
27 59
27 85
28 29
28 88
28 135
29 89
29 132
29 133
29 134
30 31
30 32
30 33
30 132
30 149
31 32
31 33
31 119
32 33
32 83
33 84
33 116
34 35
34 60
34 67
35 58
35 65
35 93
35 106
36 37
36 77
36 101
36 150
36 156
37 76
37 123
38 39
38 40
38 41
38 54
38 55
38 56
38 57
38 58
38 59
38 60
39 40
39 41
39 96
39 97
39 98
39 99
40 41
40 68
40 69
41 102
41 103
41 104
41 105
42 43
42 92
42 100
42 101
43 53
43 124
43 125
44 45
44 100
45 92
46 47
46 91
46 110
46 131
47 90
47 108
47 130
48 49
48 50
48 61
48 62
48 63
48 64
49 50
49 121
49 145
49 146
49 147
50 122
50 128
50 138
50 153
51 52
51 75
52 124
52 142
53 124
53 125
54 55
54 56
54 57
54 58
54 59
54 60
54 94
54 148
55 56
55 57
55 58
55 59
55 60
55 99
55 105
55 115
55 116
55 117
55 118
56 57
56 58
56 59
56 60
56 95
56 154
57 58
57 59
57 60
57 79
57 125
57 143
57 155
58 59
58 60
58 65
58 93
58 106
59 60
59 85
60 67
61 62
61 63
61 64
61 138
62 63
62 64
62 128
63 64
63 121
63 122
64 80
64 98
64 103
64 126
64 146
64 153
65 66
65 67
65 93
65 106
66 67
66 68
66 140
66 141
66 145
68 69
68 140
68 141
68 145
69 139
69 147
70 73
70 74
71 72
71 136
71 137
72 74
72 129
72 144
72 151
72 152
73 74
74 129
74 144
74 151
74 152
75 141
75 142
76 77
76 78
76 79
76 123
77 78
77 79
77 101
77 150
77 156
78 79
78 120
79 125
79 143
79 155
80 81
80 82
80 98
80 103
80 126
80 146
80 153
81 82
81 96
81 102
82 97
82 104
82 127
83 84
84 116
85 111
85 143
86 87
86 88
86 89
86 107
86 108
86 109
86 110
86 111
87 88
87 89
87 90
87 91
88 89
88 135
89 132
89 133
89 134
90 91
90 108
90 130
91 110
91 131
92 100
92 101
93 94
93 95
93 106
94 95
94 148
95 154
96 97
96 98
96 99
96 102
97 98
97 99
97 104
97 127
98 99
98 103
98 126
98 146
98 153
99 105
99 115
99 116
99 117
99 118
100 101
101 150
101 156
102 103
102 104
102 105
103 104
103 105
103 126
103 146
103 153
104 105
104 127
105 115
105 116
105 117
105 118
106 134
106 148
106 154
107 108
107 109
107 110
107 111
108 109
108 110
108 111
108 130
109 110
109 111
110 111
110 131
111 143
112 113
112 114
112 115
112 137
112 151
113 114
113 117
113 152
114 118
114 129
115 116
115 117
115 118
115 137
115 151
116 117
116 118
117 118
117 152
118 129
119 149
120 155
120 156
121 122
121 145
121 146
121 147
122 128
122 138
122 153
123 150
124 125
124 142
125 143
125 155
126 127
126 146
126 153
128 138
128 153
129 144
129 151
129 152
130 131
132 133
132 134
132 149
133 134
133 135
134 148
134 154
136 137
136 144
137 151
138 153
139 140
139 147
140 141
140 145
141 142
141 145
143 155
144 151
144 152
145 146
145 147
146 147
146 153
148 154
150 156
151 152
155 156
